c 170_3_checker.cnf
c
c field = 170
c formula set type = 3_checker
c
p cnf 4 58
332 
334 
336 
-330 
333 
335 
337 
-331 
332 
334 
336 
-340 
333 
335 
337 
-341 
334 
336 
340 
-332 
335 
337 
341 
-333 
334 
336 
340 
-342 
335 
337 
341 
-343 
336 
340 
342 
-334 
337 
341 
343 
-335 
336 
340 
342 
-344 
337 
341 
343 
-345 
340 
342 
344 
-336 
341 
343 
345 
-337 
340 
342 
344 
-346 
341 
343 
345 
-347 
248 
278 
308 
-218 
249 
279 
309 
-219 
248 
278 
308 
-368 
249 
279 
309 
-369 
278 
308 
368 
-248 
279 
309 
369 
-249 
278 
308 
368 
-398 
279 
309 
369 
-399 
308 
368 
398 
-278 
309 
369 
399 
-279 
308 
368 
398 
-428 
309 
369 
399 
-429 
368 
398 
428 
-308 
369 
399 
429 
-309 
242 
274 
306 
-210 
243 
275 
307 
-211 
242 
274 
306 
-370 
243 
275 
307 
-371 
274 
306 
370 
-242 
275 
307 
371 
-243 
274 
306 
370 
-402 
275 
307 
371 
-403 
306 
370 
402 
-274 
307 
371 
403 
-275 
306 
370 
402 
-434 
307 
371 
403 
-435 
370 
402 
434 
-306 
371 
403 
435 
-307 
254 
282 
310 
-226 
255 
283 
311 
-227 
254 
282 
310 
-366 
255 
283 
311 
-367 
282 
310 
366 
-254 
283 
311 
367 
-255 
282 
310 
366 
-394 
283 
311 
367 
-395 
310 
366 
394 
-282 
311 
367 
395 
-283 
310 
366 
394 
-422 
311 
367 
395 
-423 
366 
394 
422 
-310 
367 
395 
423 
-311 
